25
12
0 14 16 17 18 20 21 22 23
1 13 14 16 21 22 23 24
2 13 14 16 19 20 22 23
3 12 14 16 19 20 21 22 23 24
4 13 17 20 21 23
5 13 14 16 19 20 21 22
6 13 16 18 20 21 23 24
7 13 14 19 22 23
8 17 20
9 15 18 19 21
10 17
11 16
